NAME : u574.36983.tour
COMMENT : Cost = 0_36983
COMMENT : Found by LKH [Keld Helsgaun] Thu Nov 16 16:26:57 2017
TYPE : TOUR
DIMENSION : 576
TOUR_SECTION
1
570
567
566
565
564
2
3
4
5
6
563
562
561
560
559
555
556
557
558
7
8
9
10
11
12
554
553
552
551
550
549
548
547
546
13
14
545
544
543
541
542
540
539
538
537
536
529
530
531
532
533
535
534
526
527
528
525
524
523
522
520
521
244
243
242
241
226
227
225
224
223
220
221
222
16
15
17
18
21
19
20
32
31
33
34
35
36
37
38
39
40
41
42
43
80
56
79
81
82
83
84
112
111
113
114
118
119
120
121
122
123
98
97
96
100
99
101
102
103
104
95
106
105
107
108
109
110
85
86
87
88
89
90
93
94
92
91
29
28
30
27
26
165
25
24
23
22
219
218
217
216
212
215
214
213
166
167
154
155
164
163
162
161
160
156
159
158
157
153
168
169
170
171
172
173
174
175
176
177
178
179
210
211
233
232
234
231
230
229
228
236
235
237
240
239
238
207
206
205
204
200
201
249
248
202
203
245
246
247
519
518
517
516
515
477
513
514
478
479
480
481
507
506
508
509
510
512
511
505
504
503
502
501
500
499
498
497
493
494
495
496
491
492
490
489
488
487
486
485
484
483
482
472
473
471
470
474
476
475
254
252
253
251
250
198
199
197
196
195
194
193
192
191
190
189
281
280
279
278
277
276
275
274
263
262
265
264
273
272
271
270
268
267
266
389
390
388
387
386
384
383
385
382
377
376
366
365
364
363
362
361
360
359
411
410
409
408
407
406
405
404
403
394
393
392
391
261
260
259
258
257
255
256
395
397
396
461
462
463
464
465
466
467
469
468
457
459
458
460
398
399
402
400
401
449
448
450
456
451
455
454
452
453
442
443
447
444
441
445
446
433
432
431
430
434
435
436
440
437
438
439
429
428
427
426
425
424
423
422
421
420
419
418
417
416
415
414
413
412
357
358
356
355
354
353
352
350
351
348
349
367
368
369
347
346
345
370
371
344
343
341
342
340
338
339
372
373
374
375
378
381
380
379
269
333
334
337
336
335
332
331
330
327
329
328
326
325
324
323
322
321
320
318
319
317
316
315
314
313
312
309
310
311
300
301
302
303
304
299
298
297
295
296
305
306
307
308
282
283
284
188
187
186
208
209
185
184
183
182
181
180
285
287
286
294
293
288
292
289
290
291
151
152
150
149
148
147
146
144
145
143
142
141
140
139
138
137
136
135
134
133
131
132
124
125
126
70
116
117
115
74
73
72
71
69
68
67
66
127
128
130
129
65
64
63
62
61
76
75
77
78
60
59
58
57
55
54
44
45
46
47
53
52
51
50
49
48
571
572
573
575
569
568
576
574
-1
EOF
